NAME : data_13
TYPE : TSP
COMMENT : Subset of xqf131 with 13 nodes
DIMENSION : 13
EDGE_WEIGHT_TYPE : EUC_2D
NODE_COORD_SECTION
1 0 13
2 0 26
3 0 27
4 0 39
5 2 0
6 5 13
7 5 19
8 5 25
9 5 31
10 5 37
11 5 43
12 5 8
13 8 0
EOF
